(set-info :smt-lib-version 2.6)
(set-logic QF_S)
(set-info :source |
Generated by: Murphy Berzish, Mitja Kulczynski, Federico Mora, Florin Manea, Joel Day, Dirk Nowotka, Vijay Ganesh, Zhengyang Lu
Generated on: 2020-10-01
Description: Translated from a collection of real-world regex queries, AutomataArk, collected by Loris D’Antoni and Fang Wang: https://github.com/lorisdanto/automatark
Application: Evaluate solvers on real-world regex queries
Target solver: Z3str3RE, CVC4, OSTRICH, Z3seq, Z3str3, Z3-Trau
Publications: Berzish, M., Kulczynski, M., Mora, F., Manea, F., Day, J. D., Nowotka, D., & Ganesh, V. (2021, July). An SMT solver for regular expressions and linear arithmetic over string length. In CAV 2021.
|)
(set-info :license "https://creativecommons.org/licenses/by/4.0/")
(set-info :category "industrial")
(set-info :status sat)

(declare-const X String)
(assert (not (str.in_re X (re.union (re.++ (str.to_re "/") (re.opt (re.++ (re.union (re.++ (str.to_re "http") (re.opt (str.to_re "s"))) (str.to_re "ftp")) (str.to_re "://"))) (re.opt (re.++ (re.+ (re.union (re.range "a" "z") (re.range "0" "9") (str.to_re "+") (str.to_re "!") (str.to_re "*") (str.to_re "(") (str.to_re ")") (str.to_re ",") (str.to_re ";") (str.to_re "?") (str.to_re "&") (str.to_re "=") (str.to_re "$") (str.to_re "_") (str.to_re ".") (str.to_re "-"))) (re.opt (re.++ (str.to_re ":") (re.+ (re.union (re.range "a" "z") (re.range "0" "9") (str.to_re "+") (str.to_re "!") (str.to_re "*") (str.to_re "(") (str.to_re ")") (str.to_re ",") (str.to_re ";") (str.to_re "?") (str.to_re "&") (str.to_re "=") (str.to_re "$") (str.to_re "_") (str.to_re ".") (str.to_re "-"))))) (str.to_re "@"))) (re.* (re.union (re.range "a" "z") (re.range "0" "9") (str.to_re "-") (str.to_re "."))) (str.to_re ".") ((_ re.loop 2 6) (re.range "a" "z"))) (re.++ (re.opt (re.++ (str.to_re ":") ((_ re.loop 2 5) (re.range "0" "9")))) (re.* (re.++ (str.to_re "/") (re.+ (re.++ (re.union (re.range "a" "z") (re.range "0" "9") (str.to_re "+") (str.to_re "$") (str.to_re "_") (str.to_re "-")) (re.opt (str.to_re ".")))))) (re.opt (str.to_re "/")) (re.opt (re.++ (str.to_re "?") (re.union (re.range "a" "z") (str.to_re "+") (str.to_re "&") (str.to_re "$") (str.to_re "_") (str.to_re ".") (str.to_re "-")) (re.* (re.union (re.range "a" "z") (re.range "0" "9") (str.to_re ";") (str.to_re ":") (str.to_re "@") (str.to_re "&") (str.to_re "%") (str.to_re "=") (str.to_re "+") (str.to_re "/") (str.to_re "$") (str.to_re "_") (str.to_re ".") (str.to_re "-"))))) (re.opt (re.++ (str.to_re "#") (re.union (re.range "a" "z") (str.to_re "_") (str.to_re ".") (str.to_re "-")) (re.* (re.union (re.range "a" "z") (re.range "0" "9") (str.to_re "+") (str.to_re "$") (str.to_re "_") (str.to_re ".") (str.to_re "-"))))) (str.to_re "/i\u{a}") ((_ re.loop 3 3) (re.++ ((_ re.loop 1 3) (re.range "0" "9")) (str.to_re "."))) ((_ re.loop 1 3) (re.range "0" "9")))))))
(assert (not (str.in_re X (str.to_re "RootviewNetControl.Server\u{13}data2.activshopper.com\u{a}"))))
(assert (not (str.in_re X (re.++ (str.to_re "/filename=") (re.* (re.comp (str.to_re "\u{a}"))) (str.to_re ".rtx/i\u{a}")))))
(assert (not (str.in_re X (re.++ (re.union (re.++ (re.union (re.range "a" "z") (re.range "A" "Z")) (str.to_re ":")) (re.++ (re.opt (str.to_re "$")) ((_ re.loop 2 2) (str.to_re "\u{5c}")) (re.+ (re.union (re.range "0" "9") (re.range "A" "Z") (re.range "a" "z") (str.to_re "_"))))) (re.+ (re.++ (str.to_re "\u{5c}") (re.union (re.range "0" "9") (re.range "A" "Z") (re.range "a" "z") (str.to_re "_")) (re.* (re.union (str.to_re " ") (re.range "0" "9") (re.range "A" "Z") (re.range "a" "z") (str.to_re "_"))) (re.* re.allchar))) (str.to_re ".") (re.union (str.to_re "txt") (str.to_re "TXT")) (str.to_re "\u{a}")))))
(assert (not (str.in_re X (re.++ (str.to_re "/dir=") ((_ re.loop 8 8) (re.union (re.range "0" "9") (re.range "A" "F"))) ((_ re.loop 4 4) (re.++ (str.to_re "-") ((_ re.loop 4 4) (re.union (re.range "0" "9") (re.range "A" "F"))))) ((_ re.loop 8 8) (re.union (re.range "0" "9") (re.range "A" "F"))) (str.to_re "&data=/Pi\u{a}")))))
(check-sat)

(exit)
